Maximize
  - 2.8453846927754 edge_0_1_0_0 - 2.827461266832 edge_0_2_0_0
   - 2.5530268200302 edge_0_3_0_0 - 2.1603309568129 edge_0_4_0_0
   - 0.3885606802512 edge_0_5_0_0 - 1.2607711208348 edge_0_6_0_0
   - 1.4101107332265 edge_0_7_0_0 - 1.6106838522863 edge_0_8_0_0
   - 1.5982245263688 edge_0_13_0_0 - 3.82928 edge_0_15_0_0
   + 0.8580544428166167 edge_1_2_0_0 + 0.9342940064419966 edge_1_3_0_0
   + 0.0322128520425912 edge_1_4_0_0 + 1.01008360238951 edge_1_5_0_0
   + 0.1285173417970525 edge_1_6_0_0 + 0.3707909528344429 edge_1_7_0_0
   + 0.0992202986609556 edge_1_8_0_0 + 0.6475842426702666 edge_1_9_0_0
   - 0.0151481685638741 edge_1_10_0_0 + 0.2432893493447018 edge_1_11_0_0
   - 0.3476975683352757 edge_1_12_0_0 + 0.5400066264565343 edge_1_13_0_0
   - 0.6012955530232578 edge_1_14_0_0 - 0.186177747765837 edge_1_15_0_0
   - 0.1267793407080173 edge_1_16_0_0 + 3.077484951025 edge_1_18_0_0
   + 1.736374499002579 edge_2_1_0_0 + 0.9049580936240824 edge_2_3_0_0
   + 0.3854681123949285 edge_2_4_0_0 + 0.4210774047149914 edge_2_5_0_0
   + 0.0763388465877495 edge_2_6_0_0 + 0.0038103935081256 edge_2_7_0_0
   - 0.1802974049680484 edge_2_8_0_0 + 0.5914615762816512 edge_2_9_0_0
   - 0.544111701519968 edge_2_12_0_0 + 0.0864244976574775 edge_2_13_0_0
   - 0.7840423386674669 edge_2_14_0_0 - 0.3972903165685 edge_2_15_0_0
   + 0.8847780959434625 edge_2_16_0_0 - 0.4580175315704447 edge_2_17_0_0
   + 0.3297551496655879 edge_3_1_0_0 + 2.240599863339513 edge_3_2_0_0
   + 0.0531327948558069 edge_3_3_0_0 + 2.050426385269544 edge_3_5_0_0
   + 1.493906684489778 edge_3_6_0_0 + 0.9843800012051064 edge_3_7_0_0
   + 0.5046959293772273 edge_3_8_0_0 + 0.1294296828510582 edge_3_9_0_0
   - 0.5028592280754803 edge_3_10_0_0 + 0.0416815068268907 edge_3_11_0_0
   - 0.6903638088195054 edge_3_12_0_0 + 0.4477640701545665 edge_3_13_0_0
   - 0.7157339226858098 edge_3_14_0_0 - 0.2542131798501686 edge_3_15_0_0
   - 0.1652642720260845 edge_3_16_0_0 - 0.1827197404392785 edge_3_17_0_0
   + 0.0774755613782828 edge_3_18_0_0 - 0.247935343424302 edge_4_1_0_0
   - 0.1540361105068788 edge_4_2_0_0 + 0.028474095270114 edge_4_5_0_0
   - 0.0418016940661801 edge_4_6_0_0 - 0.4604431686223626 edge_4_7_0_0
   - 0.11253792527702 edge_4_18_0_0 + 2.360995406856265 edge_5_1_0_0
   + 1.089116184951009 edge_5_2_0_0 + 1.85951066764731 edge_5_3_0_0
   + 1.120407809997934 edge_5_4_0_0 + 2.138654270273106 edge_5_6_0_0
   + 0.9419385646985533 edge_5_7_0_0 + 0.7590728296617492 edge_5_8_0_0
   + 1.681469200564058 edge_5_9_0_0 - 0.7807276869731978 edge_5_10_0_0
   + 0.5418785369957898 edge_5_11_0_0 + 0.0352654132377428 edge_5_12_0_0
   + 1.126751726171243 edge_5_13_0_0 - 0.1478720229645661 edge_5_14_0_0
   + 0.7043929392465 edge_5_15_0_0 + 0.6579539195166764 edge_5_16_0_0
   + 0.2361654475852507 edge_5_17_0_0 + 3.891593553095346 edge_5_18_0_0
   + 0.4371015508442357 edge_6_1_0_0 - 0.0160337678712422 edge_6_2_0_0
   + 1.451612475934221 edge_6_3_0_0 + 0.1742886302344404 edge_6_4_0_0
   + 0.6518723311963621 edge_6_5_0_0 + 0.4184483952447248 edge_6_6_0_0
   + 1.465951024086582 edge_6_7_0_0 + 1.083997451337428 edge_6_8_0_0
   + 0.78002422728245 edge_6_9_0_0 + 0.5325530766267095 edge_6_11_0_0
   + 0.2842053127579982 edge_6_12_0_0 + 0.6829565643306509 edge_6_13_0_0
   - 0.0302562490419309 edge_6_14_0_0 + 0.41596312810932 edge_6_15_0_0
   + 0.8141491589135437 edge_6_16_0_0 + 0.684246744407718 edge_6_17_0_0
   + 1.5426009063325 edge_6_18_0_0 - 0.2720300148239641 edge_7_1_0_0
   - 0.1245643665471545 edge_7_2_0_0 + 0.4345794340897491 edge_7_3_0_0
   - 0.0809304156857922 edge_7_5_0_0 + 0.5351670939124836 edge_7_6_0_0
   + 0.00461346902588627 edge_7_7_0_0 + 1.702883753047159 edge_7_8_0_0
   + 0.8589734014416804 edge_7_9_0_0 - 0.4205096913829165 edge_7_10_0_0
   - 0.0148682406510678 edge_7_11_0_0 + 0.2819564160071775 edge_7_12_0_0
   + 0.0942897245637676 edge_7_13_0_0 - 0.2635567199915129 edge_7_14_0_0
   + 0.52899840586102 edge_7_15_0_0 + 1.474909785391759 edge_7_16_0_0
   + 0.9262315425829601 edge_7_17_0_0 + 0.2271460104331717 edge_7_18_0_0
   - 0.06410631420039 edge_8_1_0_0 + 0.1863132357980409 edge_8_2_0_0
   + 0.5695014425349469 edge_8_3_0_0 - 0.136352540914494 edge_8_4_0_0
   + 0.055802568133403 edge_8_5_0_0 + 0.1788759083660023 edge_8_6_0_0
   + 1.206088294822217 edge_8_7_0_0 + 0.2884356512514322 edge_8_8_0_0
   + 0.8932021587936161 edge_8_9_0_0 - 0.1337029678042681 edge_8_10_0_0
   + 0.3865092161663235 edge_8_11_0_0 + 0.1480380387220182 edge_8_12_0_0
   + 0.4852154993585705 edge_8_13_0_0 - 0.2257452596903937 edge_8_14_0_0
   + 0.0698958420088952 edge_8_15_0_0 + 0.5885141250916288 edge_8_16_0_0
   + 0.2476601986465702 edge_8_17_0_0 + 0.6963525240212812 edge_8_18_0_0
   + 0.1466637517683843 edge_10_9_0_0 + 1.835673171472815 edge_10_12_0_0
   + 0.8223426938635705 edge_10_14_0_0 + 0.9384864334785609 edge_10_15_0_0
   + 0.8122736671322954 edge_10_16_0_0 + 0.6490821308921874 edge_10_17_0_0
   + 1.009830942336543 edge_10_18_0_0 - 1.062783636822248 edge_11_1_0_0
   - 0.874925987967466 edge_11_3_0_0 - 0.3195392586975161 edge_11_6_0_0
   - 0.2342012393778849 edge_11_7_0_0 - 0.1274956232146218 edge_11_8_0_0
   - 0.0638575682817654 edge_11_12_0_0 - 0.0483342031288335 edge_11_13_0_0
   - 0.4218498209538486 edge_11_14_0_0 + 0.3164927509956439 edge_12_5_0_0
   - 0.0405451817730413 edge_12_6_0_0 - 0.111842049261607 edge_12_7_0_0
   - 0.0220655354103731 edge_12_8_0_0 + 0.5736504585352986 edge_12_9_0_0
   + 0.6872866736839227 edge_12_10_0_0 + 0.35692640022209 edge_12_11_0_0
   + 1.562799624365855 edge_12_13_0_0 + 0.3890626833144099 edge_12_14_0_0
   + 0.9771875519248048 edge_12_15_0_0 + 0.7142820193275046 edge_12_16_0_0
   + 0.4203267188639628 edge_12_17_0_0 + 0.2710038032755472 edge_12_18_0_0
   + 0.1734095361162573 edge_13_1_0_0 + 0.4483671070302402 edge_13_3_0_0
   + 0.1547747521644119 edge_13_5_0_0 + 0.1435431118817513 edge_13_6_0_0
   + 0.412501552608261 edge_13_7_0_0 + 0.392478084831527 edge_13_8_0_0
   - 0.0351870186033448 edge_13_9_0_0 + 0.6582307992649052 edge_13_11_0_0
   + 2.951785631071912 edge_13_12_0_0 + 1.624230820020563 edge_13_14_0_0
   + 2.6075700440631 edge_13_15_0_0 + 1.953122376455352 edge_13_16_0_0
   + 1.825491332532558 edge_13_17_0_0 + 2.972180651228082 edge_13_18_0_0
   - 0.4387147201818309 edge_14_10_0_0 - 0.00545418315627419 edge_14_12_0_0
   - 0.3910242844270937 edge_14_13_0_0 + 0.21023777504534 edge_14_15_0_0
   + 1.102957019703821 edge_14_16_0_0 + 0.7656203868201383 edge_14_17_0_0
   - 0.4686052455446107 edge_14_18_0_0 - 1.2818366190707 edge_15_1_0_0
   - 0.4491189596475501 edge_15_3_0_0 - 0.9468533466008999 edge_15_5_0_0
   - 0.31547539685222 edge_15_6_0_0 - 0.09231526886642 edge_15_7_0_0
   - 0.18525862345976 edge_15_8_0_0 + 0.4523253009843038 edge_15_10_0_0
   - 0.1190235710788 edge_15_11_0_0 + 1.0245968491612 edge_15_12_0_0
   + 1.157623541217 edge_15_13_0_0 + 3.134434203394199 edge_15_14_0_0
   + 3.9317229253272 edge_15_16_0_0 + 3.4373347462102 edge_15_17_0_0
   + 1.47886 edge_15_18_0_0 - 0.5311381440461488 edge_16_12_0_0
   - 0.0995841898102442 edge_16_14_0_0 - 0.34612558694092 edge_16_15_0_0
   + 0.1090015935370481 edge_16_17_0_0 - 2.181406548540727 edge_17_1_0_0
   - 1.227687898410693 edge_17_3_0_0 - 1.943977313365017 edge_17_5_0_0
   - 0.7749888252975227 edge_17_7_0_0 - 0.7118907541411531 edge_17_11_0_0
   + 0.224926706238619 edge_17_12_0_0 + 0.6997884138202553 edge_17_14_0_0
   + 0.2593426337172 edge_17_15_0_0 + 0.6003869258107598 edge_17_16_0_0
   + 0.76739043380594 edge_17_18_0_0 - 1.747167187057309 edge_18_14_0_0
   - 0.9586767393629312 edge_18_17_0_0
Subject To
 one_parent_1: edge_0_1_0_0 + edge_2_1_0_0 + edge_3_1_0_0 + edge_4_1_0_0
   + edge_5_1_0_0 + edge_6_1_0_0 + edge_7_1_0_0 + edge_8_1_0_0
   + edge_11_1_0_0 + edge_13_1_0_0 + edge_15_1_0_0 + edge_17_1_0_0 = 1
 consume_one_flow_unit_1: flow_0_1_0_0 - flow_1_2_0_0 - flow_1_3_0_0
   - flow_1_4_0_0 - flow_1_5_0_0 - flow_1_6_0_0 - flow_1_7_0_0
   - flow_1_8_0_0 - flow_1_9_0_0 - flow_1_10_0_0 - flow_1_11_0_0
   - flow_1_12_0_0 - flow_1_13_0_0 - flow_1_14_0_0 - flow_1_15_0_0
   - flow_1_16_0_0 - flow_1_18_0_0 + flow_2_1_0_0 + flow_3_1_0_0
   + flow_4_1_0_0 + flow_5_1_0_0 + flow_6_1_0_0 + flow_7_1_0_0
   + flow_8_1_0_0 + flow_11_1_0_0 + flow_13_1_0_0 + flow_15_1_0_0
   + flow_17_1_0_0 = 1
 one_parent_2: edge_0_2_0_0 + edge_1_2_0_0 + edge_3_2_0_0 + edge_4_2_0_0
   + edge_5_2_0_0 + edge_6_2_0_0 + edge_7_2_0_0 + edge_8_2_0_0 = 1
 consume_one_flow_unit_2: flow_0_2_0_0 + flow_1_2_0_0 - flow_2_1_0_0
   - flow_2_3_0_0 - flow_2_4_0_0 - flow_2_5_0_0 - flow_2_6_0_0
   - flow_2_7_0_0 - flow_2_8_0_0 - flow_2_9_0_0 - flow_2_12_0_0
   - flow_2_13_0_0 - flow_2_14_0_0 - flow_2_15_0_0 - flow_2_16_0_0
   - flow_2_17_0_0 + flow_3_2_0_0 + flow_4_2_0_0 + flow_5_2_0_0
   + flow_6_2_0_0 + flow_7_2_0_0 + flow_8_2_0_0 = 1
 one_parent_3: edge_0_3_0_0 + edge_1_3_0_0 + edge_2_3_0_0 + edge_3_3_0_0
   + edge_5_3_0_0 + edge_6_3_0_0 + edge_7_3_0_0 + edge_8_3_0_0
   + edge_11_3_0_0 + edge_13_3_0_0 + edge_15_3_0_0 + edge_17_3_0_0 = 1
 consume_one_flow_unit_3: flow_0_3_0_0 + flow_1_3_0_0 + flow_2_3_0_0
   - flow_3_1_0_0 - flow_3_2_0_0 - flow_3_5_0_0 - flow_3_6_0_0
   - flow_3_7_0_0 - flow_3_8_0_0 - flow_3_9_0_0 - flow_3_10_0_0
   - flow_3_11_0_0 - flow_3_12_0_0 - flow_3_13_0_0 - flow_3_14_0_0
   - flow_3_15_0_0 - flow_3_16_0_0 - flow_3_17_0_0 - flow_3_18_0_0
   + flow_5_3_0_0 + flow_6_3_0_0 + flow_7_3_0_0 + flow_8_3_0_0
   + flow_11_3_0_0 + flow_13_3_0_0 + flow_15_3_0_0 + flow_17_3_0_0 = 1
 one_parent_4: edge_0_4_0_0 + edge_1_4_0_0 + edge_2_4_0_0 + edge_5_4_0_0
   + edge_6_4_0_0 + edge_8_4_0_0 = 1
 consume_one_flow_unit_4: flow_0_4_0_0 + flow_1_4_0_0 + flow_2_4_0_0
   - flow_4_1_0_0 - flow_4_2_0_0 - flow_4_5_0_0 - flow_4_6_0_0
   - flow_4_7_0_0 - flow_4_18_0_0 + flow_5_4_0_0 + flow_6_4_0_0
   + flow_8_4_0_0 = 1
 one_parent_5: edge_0_5_0_0 + edge_1_5_0_0 + edge_2_5_0_0 + edge_3_5_0_0
   + edge_4_5_0_0 + edge_6_5_0_0 + edge_7_5_0_0 + edge_8_5_0_0
   + edge_12_5_0_0 + edge_13_5_0_0 + edge_15_5_0_0 + edge_17_5_0_0 = 1
 consume_one_flow_unit_5: flow_0_5_0_0 + flow_1_5_0_0 + flow_2_5_0_0
   + flow_3_5_0_0 + flow_4_5_0_0 - flow_5_1_0_0 - flow_5_2_0_0
   - flow_5_3_0_0 - flow_5_4_0_0 - flow_5_6_0_0 - flow_5_7_0_0
   - flow_5_8_0_0 - flow_5_9_0_0 - flow_5_10_0_0 - flow_5_11_0_0
   - flow_5_12_0_0 - flow_5_13_0_0 - flow_5_14_0_0 - flow_5_15_0_0
   - flow_5_16_0_0 - flow_5_17_0_0 - flow_5_18_0_0 + flow_6_5_0_0
   + flow_7_5_0_0 + flow_8_5_0_0 + flow_12_5_0_0 + flow_13_5_0_0
   + flow_15_5_0_0 + flow_17_5_0_0 = 1
 one_parent_6: edge_0_6_0_0 + edge_1_6_0_0 + edge_2_6_0_0 + edge_3_6_0_0
   + edge_4_6_0_0 + edge_5_6_0_0 + edge_6_6_0_0 + edge_7_6_0_0
   + edge_8_6_0_0 + edge_11_6_0_0 + edge_12_6_0_0 + edge_13_6_0_0
   + edge_15_6_0_0 = 1
 consume_one_flow_unit_6: flow_0_6_0_0 + flow_1_6_0_0 + flow_2_6_0_0
   + flow_3_6_0_0 + flow_4_6_0_0 + flow_5_6_0_0 - flow_6_1_0_0
   - flow_6_2_0_0 - flow_6_3_0_0 - flow_6_4_0_0 - flow_6_5_0_0
   - flow_6_7_0_0 - flow_6_8_0_0 - flow_6_9_0_0 - flow_6_11_0_0
   - flow_6_12_0_0 - flow_6_13_0_0 - flow_6_14_0_0 - flow_6_15_0_0
   - flow_6_16_0_0 - flow_6_17_0_0 - flow_6_18_0_0 + flow_7_6_0_0
   + flow_8_6_0_0 + flow_11_6_0_0 + flow_12_6_0_0 + flow_13_6_0_0
   + flow_15_6_0_0 = 1
 one_parent_7: edge_0_7_0_0 + edge_1_7_0_0 + edge_2_7_0_0 + edge_3_7_0_0
   + edge_4_7_0_0 + edge_5_7_0_0 + edge_6_7_0_0 + edge_7_7_0_0
   + edge_8_7_0_0 + edge_11_7_0_0 + edge_12_7_0_0 + edge_13_7_0_0
   + edge_15_7_0_0 + edge_17_7_0_0 = 1
 consume_one_flow_unit_7: flow_0_7_0_0 + flow_1_7_0_0 + flow_2_7_0_0
   + flow_3_7_0_0 + flow_4_7_0_0 + flow_5_7_0_0 + flow_6_7_0_0
   - flow_7_1_0_0 - flow_7_2_0_0 - flow_7_3_0_0 - flow_7_5_0_0
   - flow_7_6_0_0 - flow_7_8_0_0 - flow_7_9_0_0 - flow_7_10_0_0
   - flow_7_11_0_0 - flow_7_12_0_0 - flow_7_13_0_0 - flow_7_14_0_0
   - flow_7_15_0_0 - flow_7_16_0_0 - flow_7_17_0_0 - flow_7_18_0_0
   + flow_8_7_0_0 + flow_11_7_0_0 + flow_12_7_0_0 + flow_13_7_0_0
   + flow_15_7_0_0 + flow_17_7_0_0 = 1
 one_parent_8: edge_0_8_0_0 + edge_1_8_0_0 + edge_2_8_0_0 + edge_3_8_0_0
   + edge_5_8_0_0 + edge_6_8_0_0 + edge_7_8_0_0 + edge_8_8_0_0
   + edge_11_8_0_0 + edge_12_8_0_0 + edge_13_8_0_0 + edge_15_8_0_0 = 1
 consume_one_flow_unit_8: flow_0_8_0_0 + flow_1_8_0_0 + flow_2_8_0_0
   + flow_3_8_0_0 + flow_5_8_0_0 + flow_6_8_0_0 + flow_7_8_0_0
   - flow_8_1_0_0 - flow_8_2_0_0 - flow_8_3_0_0 - flow_8_4_0_0
   - flow_8_5_0_0 - flow_8_6_0_0 - flow_8_7_0_0 - flow_8_9_0_0
   - flow_8_10_0_0 - flow_8_11_0_0 - flow_8_12_0_0 - flow_8_13_0_0
   - flow_8_14_0_0 - flow_8_15_0_0 - flow_8_16_0_0 - flow_8_17_0_0
   - flow_8_18_0_0 + flow_11_8_0_0 + flow_12_8_0_0 + flow_13_8_0_0
   + flow_15_8_0_0 = 1
 one_parent_9: edge_1_9_0_0 + edge_2_9_0_0 + edge_3_9_0_0 + edge_5_9_0_0
   + edge_6_9_0_0 + edge_7_9_0_0 + edge_8_9_0_0 + edge_10_9_0_0
   + edge_12_9_0_0 + edge_13_9_0_0 = 1
 consume_one_flow_unit_9: flow_1_9_0_0 + flow_2_9_0_0 + flow_3_9_0_0
   + flow_5_9_0_0 + flow_6_9_0_0 + flow_7_9_0_0 + flow_8_9_0_0
   + flow_10_9_0_0 + flow_12_9_0_0 + flow_13_9_0_0 = 1
 one_parent_10: edge_1_10_0_0 + edge_3_10_0_0 + edge_5_10_0_0
   + edge_7_10_0_0 + edge_8_10_0_0 + edge_12_10_0_0 + edge_14_10_0_0
   + edge_15_10_0_0 = 1
 consume_one_flow_unit_10: flow_1_10_0_0 + flow_3_10_0_0 + flow_5_10_0_0
   + flow_7_10_0_0 + flow_8_10_0_0 - flow_10_9_0_0 - flow_10_12_0_0
   - flow_10_14_0_0 - flow_10_15_0_0 - flow_10_16_0_0 - flow_10_17_0_0
   - flow_10_18_0_0 + flow_12_10_0_0 + flow_14_10_0_0 + flow_15_10_0_0 = 1
 one_parent_11: edge_1_11_0_0 + edge_3_11_0_0 + edge_5_11_0_0
   + edge_6_11_0_0 + edge_7_11_0_0 + edge_8_11_0_0 + edge_12_11_0_0
   + edge_13_11_0_0 + edge_15_11_0_0 + edge_17_11_0_0 = 1
 consume_one_flow_unit_11: flow_1_11_0_0 + flow_3_11_0_0 + flow_5_11_0_0
   + flow_6_11_0_0 + flow_7_11_0_0 + flow_8_11_0_0 - flow_11_1_0_0
   - flow_11_3_0_0 - flow_11_6_0_0 - flow_11_7_0_0 - flow_11_8_0_0
   - flow_11_12_0_0 - flow_11_13_0_0 - flow_11_14_0_0 + flow_12_11_0_0
   + flow_13_11_0_0 + flow_15_11_0_0 + flow_17_11_0_0 = 1
 one_parent_12: edge_1_12_0_0 + edge_2_12_0_0 + edge_3_12_0_0
   + edge_5_12_0_0 + edge_6_12_0_0 + edge_7_12_0_0 + edge_8_12_0_0
   + edge_10_12_0_0 + edge_11_12_0_0 + edge_13_12_0_0 + edge_14_12_0_0
   + edge_15_12_0_0 + edge_16_12_0_0 + edge_17_12_0_0 = 1
 consume_one_flow_unit_12: flow_1_12_0_0 + flow_2_12_0_0 + flow_3_12_0_0
   + flow_5_12_0_0 + flow_6_12_0_0 + flow_7_12_0_0 + flow_8_12_0_0
   + flow_10_12_0_0 + flow_11_12_0_0 - flow_12_5_0_0 - flow_12_6_0_0
   - flow_12_7_0_0 - flow_12_8_0_0 - flow_12_9_0_0 - flow_12_10_0_0
   - flow_12_11_0_0 - flow_12_13_0_0 - flow_12_14_0_0 - flow_12_15_0_0
   - flow_12_16_0_0 - flow_12_17_0_0 - flow_12_18_0_0 + flow_13_12_0_0
   + flow_14_12_0_0 + flow_15_12_0_0 + flow_16_12_0_0 + flow_17_12_0_0 = 1
 one_parent_13: edge_0_13_0_0 + edge_1_13_0_0 + edge_2_13_0_0
   + edge_3_13_0_0 + edge_5_13_0_0 + edge_6_13_0_0 + edge_7_13_0_0
   + edge_8_13_0_0 + edge_11_13_0_0 + edge_12_13_0_0 + edge_14_13_0_0
   + edge_15_13_0_0 = 1
 consume_one_flow_unit_13: flow_0_13_0_0 + flow_1_13_0_0 + flow_2_13_0_0
   + flow_3_13_0_0 + flow_5_13_0_0 + flow_6_13_0_0 + flow_7_13_0_0
   + flow_8_13_0_0 + flow_11_13_0_0 + flow_12_13_0_0 - flow_13_1_0_0
   - flow_13_3_0_0 - flow_13_5_0_0 - flow_13_6_0_0 - flow_13_7_0_0
   - flow_13_8_0_0 - flow_13_9_0_0 - flow_13_11_0_0 - flow_13_12_0_0
   - flow_13_14_0_0 - flow_13_15_0_0 - flow_13_16_0_0 - flow_13_17_0_0
   - flow_13_18_0_0 + flow_14_13_0_0 + flow_15_13_0_0 = 1
 one_parent_14: edge_1_14_0_0 + edge_2_14_0_0 + edge_3_14_0_0
   + edge_5_14_0_0 + edge_6_14_0_0 + edge_7_14_0_0 + edge_8_14_0_0
   + edge_10_14_0_0 + edge_11_14_0_0 + edge_12_14_0_0 + edge_13_14_0_0
   + edge_15_14_0_0 + edge_16_14_0_0 + edge_17_14_0_0 + edge_18_14_0_0 = 1
 consume_one_flow_unit_14: flow_1_14_0_0 + flow_2_14_0_0 + flow_3_14_0_0
   + flow_5_14_0_0 + flow_6_14_0_0 + flow_7_14_0_0 + flow_8_14_0_0
   + flow_10_14_0_0 + flow_11_14_0_0 + flow_12_14_0_0 + flow_13_14_0_0
   - flow_14_10_0_0 - flow_14_12_0_0 - flow_14_13_0_0 - flow_14_15_0_0
   - flow_14_16_0_0 - flow_14_17_0_0 - flow_14_18_0_0 + flow_15_14_0_0
   + flow_16_14_0_0 + flow_17_14_0_0 + flow_18_14_0_0 = 1
 one_parent_15: edge_0_15_0_0 + edge_1_15_0_0 + edge_2_15_0_0
   + edge_3_15_0_0 + edge_5_15_0_0 + edge_6_15_0_0 + edge_7_15_0_0
   + edge_8_15_0_0 + edge_10_15_0_0 + edge_12_15_0_0 + edge_13_15_0_0
   + edge_14_15_0_0 + edge_16_15_0_0 + edge_17_15_0_0 = 1
 consume_one_flow_unit_15: flow_0_15_0_0 + flow_1_15_0_0 + flow_2_15_0_0
   + flow_3_15_0_0 + flow_5_15_0_0 + flow_6_15_0_0 + flow_7_15_0_0
   + flow_8_15_0_0 + flow_10_15_0_0 + flow_12_15_0_0 + flow_13_15_0_0
   + flow_14_15_0_0 - flow_15_1_0_0 - flow_15_3_0_0 - flow_15_5_0_0
   - flow_15_6_0_0 - flow_15_7_0_0 - flow_15_8_0_0 - flow_15_10_0_0
   - flow_15_11_0_0 - flow_15_12_0_0 - flow_15_13_0_0 - flow_15_14_0_0
   - flow_15_16_0_0 - flow_15_17_0_0 - flow_15_18_0_0 + flow_16_15_0_0
   + flow_17_15_0_0 = 1
 one_parent_16: edge_1_16_0_0 + edge_2_16_0_0 + edge_3_16_0_0
   + edge_5_16_0_0 + edge_6_16_0_0 + edge_7_16_0_0 + edge_8_16_0_0
   + edge_10_16_0_0 + edge_12_16_0_0 + edge_13_16_0_0 + edge_14_16_0_0
   + edge_15_16_0_0 + edge_17_16_0_0 = 1
 consume_one_flow_unit_16: flow_1_16_0_0 + flow_2_16_0_0 + flow_3_16_0_0
   + flow_5_16_0_0 + flow_6_16_0_0 + flow_7_16_0_0 + flow_8_16_0_0
   + flow_10_16_0_0 + flow_12_16_0_0 + flow_13_16_0_0 + flow_14_16_0_0
   + flow_15_16_0_0 - flow_16_12_0_0 - flow_16_14_0_0 - flow_16_15_0_0
   - flow_16_17_0_0 + flow_17_16_0_0 = 1
 one_parent_17: edge_2_17_0_0 + edge_3_17_0_0 + edge_5_17_0_0
   + edge_6_17_0_0 + edge_7_17_0_0 + edge_8_17_0_0 + edge_10_17_0_0
   + edge_12_17_0_0 + edge_13_17_0_0 + edge_14_17_0_0 + edge_15_17_0_0
   + edge_16_17_0_0 + edge_18_17_0_0 = 1
 consume_one_flow_unit_17: flow_2_17_0_0 + flow_3_17_0_0 + flow_5_17_0_0
   + flow_6_17_0_0 + flow_7_17_0_0 + flow_8_17_0_0 + flow_10_17_0_0
   + flow_12_17_0_0 + flow_13_17_0_0 + flow_14_17_0_0 + flow_15_17_0_0
   + flow_16_17_0_0 - flow_17_1_0_0 - flow_17_3_0_0 - flow_17_5_0_0
   - flow_17_7_0_0 - flow_17_11_0_0 - flow_17_12_0_0 - flow_17_14_0_0
   - flow_17_15_0_0 - flow_17_16_0_0 - flow_17_18_0_0 + flow_18_17_0_0 = 1
 one_parent_18: edge_1_18_0_0 + edge_3_18_0_0 + edge_4_18_0_0
   + edge_5_18_0_0 + edge_6_18_0_0 + edge_7_18_0_0 + edge_8_18_0_0
   + edge_10_18_0_0 + edge_12_18_0_0 + edge_13_18_0_0 + edge_14_18_0_0
   + edge_15_18_0_0 + edge_17_18_0_0 = 1
 consume_one_flow_unit_18: flow_1_18_0_0 + flow_3_18_0_0 + flow_4_18_0_0
   + flow_5_18_0_0 + flow_6_18_0_0 + flow_7_18_0_0 + flow_8_18_0_0
   + flow_10_18_0_0 + flow_12_18_0_0 + flow_13_18_0_0 + flow_14_18_0_0
   + flow_15_18_0_0 + flow_17_18_0_0 - flow_18_14_0_0 - flow_18_17_0_0 = 1
 root_flow: flow_0_1_0_0 + flow_0_2_0_0 + flow_0_3_0_0 + flow_0_4_0_0
   + flow_0_5_0_0 + flow_0_6_0_0 + flow_0_7_0_0 + flow_0_8_0_0
   + flow_0_13_0_0 + flow_0_15_0_0 = 18
 inactive_no_flow_0_1_0_0: flow_0_1_0_0 - 1000 edge_0_1_0_0 <= 0
 inactive_no_flow_0_2_0_0: flow_0_2_0_0 - 1000 edge_0_2_0_0 <= 0
 inactive_no_flow_0_3_0_0: flow_0_3_0_0 - 1000 edge_0_3_0_0 <= 0
 inactive_no_flow_0_4_0_0: flow_0_4_0_0 - 1000 edge_0_4_0_0 <= 0
 inactive_no_flow_0_5_0_0: flow_0_5_0_0 - 1000 edge_0_5_0_0 <= 0
 inactive_no_flow_0_6_0_0: flow_0_6_0_0 - 1000 edge_0_6_0_0 <= 0
 inactive_no_flow_0_7_0_0: flow_0_7_0_0 - 1000 edge_0_7_0_0 <= 0
 inactive_no_flow_0_8_0_0: flow_0_8_0_0 - 1000 edge_0_8_0_0 <= 0
 inactive_no_flow_0_13_0_0: flow_0_13_0_0 - 1000 edge_0_13_0_0 <= 0
 inactive_no_flow_0_15_0_0: flow_0_15_0_0 - 1000 edge_0_15_0_0 <= 0
 inactive_no_flow_1_2_0_0: flow_1_2_0_0 - 1000 edge_1_2_0_0 <= 0
 inactive_no_flow_1_3_0_0: flow_1_3_0_0 - 1000 edge_1_3_0_0 <= 0
 inactive_no_flow_1_4_0_0: flow_1_4_0_0 - 1000 edge_1_4_0_0 <= 0
 inactive_no_flow_1_5_0_0: flow_1_5_0_0 - 1000 edge_1_5_0_0 <= 0
 inactive_no_flow_1_6_0_0: flow_1_6_0_0 - 1000 edge_1_6_0_0 <= 0
 inactive_no_flow_1_7_0_0: flow_1_7_0_0 - 1000 edge_1_7_0_0 <= 0
 inactive_no_flow_1_8_0_0: flow_1_8_0_0 - 1000 edge_1_8_0_0 <= 0
 inactive_no_flow_1_9_0_0: flow_1_9_0_0 - 1000 edge_1_9_0_0 <= 0
 inactive_no_flow_1_10_0_0: flow_1_10_0_0 - 1000 edge_1_10_0_0 <= 0
 inactive_no_flow_1_11_0_0: flow_1_11_0_0 - 1000 edge_1_11_0_0 <= 0
 inactive_no_flow_1_12_0_0: flow_1_12_0_0 - 1000 edge_1_12_0_0 <= 0
 inactive_no_flow_1_13_0_0: flow_1_13_0_0 - 1000 edge_1_13_0_0 <= 0
 inactive_no_flow_1_14_0_0: flow_1_14_0_0 - 1000 edge_1_14_0_0 <= 0
 inactive_no_flow_1_15_0_0: flow_1_15_0_0 - 1000 edge_1_15_0_0 <= 0
 inactive_no_flow_1_16_0_0: flow_1_16_0_0 - 1000 edge_1_16_0_0 <= 0
 inactive_no_flow_1_18_0_0: flow_1_18_0_0 - 1000 edge_1_18_0_0 <= 0
 inactive_no_flow_2_1_0_0: flow_2_1_0_0 - 1000 edge_2_1_0_0 <= 0
 inactive_no_flow_2_3_0_0: flow_2_3_0_0 - 1000 edge_2_3_0_0 <= 0
 inactive_no_flow_2_4_0_0: flow_2_4_0_0 - 1000 edge_2_4_0_0 <= 0
 inactive_no_flow_2_5_0_0: flow_2_5_0_0 - 1000 edge_2_5_0_0 <= 0
 inactive_no_flow_2_6_0_0: flow_2_6_0_0 - 1000 edge_2_6_0_0 <= 0
 inactive_no_flow_2_7_0_0: flow_2_7_0_0 - 1000 edge_2_7_0_0 <= 0
 inactive_no_flow_2_8_0_0: flow_2_8_0_0 - 1000 edge_2_8_0_0 <= 0
 inactive_no_flow_2_9_0_0: flow_2_9_0_0 - 1000 edge_2_9_0_0 <= 0
 inactive_no_flow_2_12_0_0: flow_2_12_0_0 - 1000 edge_2_12_0_0 <= 0
 inactive_no_flow_2_13_0_0: flow_2_13_0_0 - 1000 edge_2_13_0_0 <= 0
 inactive_no_flow_2_14_0_0: flow_2_14_0_0 - 1000 edge_2_14_0_0 <= 0
 inactive_no_flow_2_15_0_0: flow_2_15_0_0 - 1000 edge_2_15_0_0 <= 0
 inactive_no_flow_2_16_0_0: flow_2_16_0_0 - 1000 edge_2_16_0_0 <= 0
 inactive_no_flow_2_17_0_0: flow_2_17_0_0 - 1000 edge_2_17_0_0 <= 0
 inactive_no_flow_3_1_0_0: flow_3_1_0_0 - 1000 edge_3_1_0_0 <= 0
 inactive_no_flow_3_2_0_0: flow_3_2_0_0 - 1000 edge_3_2_0_0 <= 0
 inactive_no_flow_3_3_0_0: flow_3_3_0_0 - 1000 edge_3_3_0_0 <= 0
 inactive_no_flow_3_5_0_0: flow_3_5_0_0 - 1000 edge_3_5_0_0 <= 0
 inactive_no_flow_3_6_0_0: flow_3_6_0_0 - 1000 edge_3_6_0_0 <= 0
 inactive_no_flow_3_7_0_0: flow_3_7_0_0 - 1000 edge_3_7_0_0 <= 0
 inactive_no_flow_3_8_0_0: flow_3_8_0_0 - 1000 edge_3_8_0_0 <= 0
 inactive_no_flow_3_9_0_0: flow_3_9_0_0 - 1000 edge_3_9_0_0 <= 0
 inactive_no_flow_3_10_0_0: flow_3_10_0_0 - 1000 edge_3_10_0_0 <= 0
 inactive_no_flow_3_11_0_0: flow_3_11_0_0 - 1000 edge_3_11_0_0 <= 0
 inactive_no_flow_3_12_0_0: flow_3_12_0_0 - 1000 edge_3_12_0_0 <= 0
 inactive_no_flow_3_13_0_0: flow_3_13_0_0 - 1000 edge_3_13_0_0 <= 0
 inactive_no_flow_3_14_0_0: flow_3_14_0_0 - 1000 edge_3_14_0_0 <= 0
 inactive_no_flow_3_15_0_0: flow_3_15_0_0 - 1000 edge_3_15_0_0 <= 0
 inactive_no_flow_3_16_0_0: flow_3_16_0_0 - 1000 edge_3_16_0_0 <= 0
 inactive_no_flow_3_17_0_0: flow_3_17_0_0 - 1000 edge_3_17_0_0 <= 0
 inactive_no_flow_3_18_0_0: flow_3_18_0_0 - 1000 edge_3_18_0_0 <= 0
 inactive_no_flow_4_1_0_0: flow_4_1_0_0 - 1000 edge_4_1_0_0 <= 0
 inactive_no_flow_4_2_0_0: flow_4_2_0_0 - 1000 edge_4_2_0_0 <= 0
 inactive_no_flow_4_5_0_0: flow_4_5_0_0 - 1000 edge_4_5_0_0 <= 0
 inactive_no_flow_4_6_0_0: flow_4_6_0_0 - 1000 edge_4_6_0_0 <= 0
 inactive_no_flow_4_7_0_0: flow_4_7_0_0 - 1000 edge_4_7_0_0 <= 0
 inactive_no_flow_4_18_0_0: flow_4_18_0_0 - 1000 edge_4_18_0_0 <= 0
 inactive_no_flow_5_1_0_0: flow_5_1_0_0 - 1000 edge_5_1_0_0 <= 0
 inactive_no_flow_5_2_0_0: flow_5_2_0_0 - 1000 edge_5_2_0_0 <= 0
 inactive_no_flow_5_3_0_0: flow_5_3_0_0 - 1000 edge_5_3_0_0 <= 0
 inactive_no_flow_5_4_0_0: flow_5_4_0_0 - 1000 edge_5_4_0_0 <= 0
 inactive_no_flow_5_6_0_0: flow_5_6_0_0 - 1000 edge_5_6_0_0 <= 0
 inactive_no_flow_5_7_0_0: flow_5_7_0_0 - 1000 edge_5_7_0_0 <= 0
 inactive_no_flow_5_8_0_0: flow_5_8_0_0 - 1000 edge_5_8_0_0 <= 0
 inactive_no_flow_5_9_0_0: flow_5_9_0_0 - 1000 edge_5_9_0_0 <= 0
 inactive_no_flow_5_10_0_0: flow_5_10_0_0 - 1000 edge_5_10_0_0 <= 0
 inactive_no_flow_5_11_0_0: flow_5_11_0_0 - 1000 edge_5_11_0_0 <= 0
 inactive_no_flow_5_12_0_0: flow_5_12_0_0 - 1000 edge_5_12_0_0 <= 0
 inactive_no_flow_5_13_0_0: flow_5_13_0_0 - 1000 edge_5_13_0_0 <= 0
 inactive_no_flow_5_14_0_0: flow_5_14_0_0 - 1000 edge_5_14_0_0 <= 0
 inactive_no_flow_5_15_0_0: flow_5_15_0_0 - 1000 edge_5_15_0_0 <= 0
 inactive_no_flow_5_16_0_0: flow_5_16_0_0 - 1000 edge_5_16_0_0 <= 0
 inactive_no_flow_5_17_0_0: flow_5_17_0_0 - 1000 edge_5_17_0_0 <= 0
 inactive_no_flow_5_18_0_0: flow_5_18_0_0 - 1000 edge_5_18_0_0 <= 0
 inactive_no_flow_6_1_0_0: flow_6_1_0_0 - 1000 edge_6_1_0_0 <= 0
 inactive_no_flow_6_2_0_0: flow_6_2_0_0 - 1000 edge_6_2_0_0 <= 0
 inactive_no_flow_6_3_0_0: flow_6_3_0_0 - 1000 edge_6_3_0_0 <= 0
 inactive_no_flow_6_4_0_0: flow_6_4_0_0 - 1000 edge_6_4_0_0 <= 0
 inactive_no_flow_6_5_0_0: flow_6_5_0_0 - 1000 edge_6_5_0_0 <= 0
 inactive_no_flow_6_6_0_0: flow_6_6_0_0 - 1000 edge_6_6_0_0 <= 0
 inactive_no_flow_6_7_0_0: flow_6_7_0_0 - 1000 edge_6_7_0_0 <= 0
 inactive_no_flow_6_8_0_0: flow_6_8_0_0 - 1000 edge_6_8_0_0 <= 0
 inactive_no_flow_6_9_0_0: flow_6_9_0_0 - 1000 edge_6_9_0_0 <= 0
 inactive_no_flow_6_11_0_0: flow_6_11_0_0 - 1000 edge_6_11_0_0 <= 0
 inactive_no_flow_6_12_0_0: flow_6_12_0_0 - 1000 edge_6_12_0_0 <= 0
 inactive_no_flow_6_13_0_0: flow_6_13_0_0 - 1000 edge_6_13_0_0 <= 0
 inactive_no_flow_6_14_0_0: flow_6_14_0_0 - 1000 edge_6_14_0_0 <= 0
 inactive_no_flow_6_15_0_0: flow_6_15_0_0 - 1000 edge_6_15_0_0 <= 0
 inactive_no_flow_6_16_0_0: flow_6_16_0_0 - 1000 edge_6_16_0_0 <= 0
 inactive_no_flow_6_17_0_0: flow_6_17_0_0 - 1000 edge_6_17_0_0 <= 0
 inactive_no_flow_6_18_0_0: flow_6_18_0_0 - 1000 edge_6_18_0_0 <= 0
 inactive_no_flow_7_1_0_0: flow_7_1_0_0 - 1000 edge_7_1_0_0 <= 0
 inactive_no_flow_7_2_0_0: flow_7_2_0_0 - 1000 edge_7_2_0_0 <= 0
 inactive_no_flow_7_3_0_0: flow_7_3_0_0 - 1000 edge_7_3_0_0 <= 0
 inactive_no_flow_7_5_0_0: flow_7_5_0_0 - 1000 edge_7_5_0_0 <= 0
 inactive_no_flow_7_6_0_0: flow_7_6_0_0 - 1000 edge_7_6_0_0 <= 0
 inactive_no_flow_7_7_0_0: flow_7_7_0_0 - 1000 edge_7_7_0_0 <= 0
 inactive_no_flow_7_8_0_0: flow_7_8_0_0 - 1000 edge_7_8_0_0 <= 0
 inactive_no_flow_7_9_0_0: flow_7_9_0_0 - 1000 edge_7_9_0_0 <= 0
 inactive_no_flow_7_10_0_0: flow_7_10_0_0 - 1000 edge_7_10_0_0 <= 0
 inactive_no_flow_7_11_0_0: flow_7_11_0_0 - 1000 edge_7_11_0_0 <= 0
 inactive_no_flow_7_12_0_0: flow_7_12_0_0 - 1000 edge_7_12_0_0 <= 0
 inactive_no_flow_7_13_0_0: flow_7_13_0_0 - 1000 edge_7_13_0_0 <= 0
 inactive_no_flow_7_14_0_0: flow_7_14_0_0 - 1000 edge_7_14_0_0 <= 0
 inactive_no_flow_7_15_0_0: flow_7_15_0_0 - 1000 edge_7_15_0_0 <= 0
 inactive_no_flow_7_16_0_0: flow_7_16_0_0 - 1000 edge_7_16_0_0 <= 0
 inactive_no_flow_7_17_0_0: flow_7_17_0_0 - 1000 edge_7_17_0_0 <= 0
 inactive_no_flow_7_18_0_0: flow_7_18_0_0 - 1000 edge_7_18_0_0 <= 0
 inactive_no_flow_8_1_0_0: flow_8_1_0_0 - 1000 edge_8_1_0_0 <= 0
 inactive_no_flow_8_2_0_0: flow_8_2_0_0 - 1000 edge_8_2_0_0 <= 0
 inactive_no_flow_8_3_0_0: flow_8_3_0_0 - 1000 edge_8_3_0_0 <= 0
 inactive_no_flow_8_4_0_0: flow_8_4_0_0 - 1000 edge_8_4_0_0 <= 0
 inactive_no_flow_8_5_0_0: flow_8_5_0_0 - 1000 edge_8_5_0_0 <= 0
 inactive_no_flow_8_6_0_0: flow_8_6_0_0 - 1000 edge_8_6_0_0 <= 0
 inactive_no_flow_8_7_0_0: flow_8_7_0_0 - 1000 edge_8_7_0_0 <= 0
 inactive_no_flow_8_8_0_0: flow_8_8_0_0 - 1000 edge_8_8_0_0 <= 0
 inactive_no_flow_8_9_0_0: flow_8_9_0_0 - 1000 edge_8_9_0_0 <= 0
 inactive_no_flow_8_10_0_0: flow_8_10_0_0 - 1000 edge_8_10_0_0 <= 0
 inactive_no_flow_8_11_0_0: flow_8_11_0_0 - 1000 edge_8_11_0_0 <= 0
 inactive_no_flow_8_12_0_0: flow_8_12_0_0 - 1000 edge_8_12_0_0 <= 0
 inactive_no_flow_8_13_0_0: flow_8_13_0_0 - 1000 edge_8_13_0_0 <= 0
 inactive_no_flow_8_14_0_0: flow_8_14_0_0 - 1000 edge_8_14_0_0 <= 0
 inactive_no_flow_8_15_0_0: flow_8_15_0_0 - 1000 edge_8_15_0_0 <= 0
 inactive_no_flow_8_16_0_0: flow_8_16_0_0 - 1000 edge_8_16_0_0 <= 0
 inactive_no_flow_8_17_0_0: flow_8_17_0_0 - 1000 edge_8_17_0_0 <= 0
 inactive_no_flow_8_18_0_0: flow_8_18_0_0 - 1000 edge_8_18_0_0 <= 0
 inactive_no_flow_10_9_0_0: flow_10_9_0_0 - 1000 edge_10_9_0_0 <= 0
 inactive_no_flow_10_12_0_0: flow_10_12_0_0 - 1000 edge_10_12_0_0 <= 0
 inactive_no_flow_10_14_0_0: flow_10_14_0_0 - 1000 edge_10_14_0_0 <= 0
 inactive_no_flow_10_15_0_0: flow_10_15_0_0 - 1000 edge_10_15_0_0 <= 0
 inactive_no_flow_10_16_0_0: flow_10_16_0_0 - 1000 edge_10_16_0_0 <= 0
 inactive_no_flow_10_17_0_0: flow_10_17_0_0 - 1000 edge_10_17_0_0 <= 0
 inactive_no_flow_10_18_0_0: flow_10_18_0_0 - 1000 edge_10_18_0_0 <= 0
 inactive_no_flow_11_1_0_0: flow_11_1_0_0 - 1000 edge_11_1_0_0 <= 0
 inactive_no_flow_11_3_0_0: flow_11_3_0_0 - 1000 edge_11_3_0_0 <= 0
 inactive_no_flow_11_6_0_0: flow_11_6_0_0 - 1000 edge_11_6_0_0 <= 0
 inactive_no_flow_11_7_0_0: flow_11_7_0_0 - 1000 edge_11_7_0_0 <= 0
 inactive_no_flow_11_8_0_0: flow_11_8_0_0 - 1000 edge_11_8_0_0 <= 0
 inactive_no_flow_11_12_0_0: flow_11_12_0_0 - 1000 edge_11_12_0_0 <= 0
 inactive_no_flow_11_13_0_0: flow_11_13_0_0 - 1000 edge_11_13_0_0 <= 0
 inactive_no_flow_11_14_0_0: flow_11_14_0_0 - 1000 edge_11_14_0_0 <= 0
 inactive_no_flow_12_5_0_0: flow_12_5_0_0 - 1000 edge_12_5_0_0 <= 0
 inactive_no_flow_12_6_0_0: flow_12_6_0_0 - 1000 edge_12_6_0_0 <= 0
 inactive_no_flow_12_7_0_0: flow_12_7_0_0 - 1000 edge_12_7_0_0 <= 0
 inactive_no_flow_12_8_0_0: flow_12_8_0_0 - 1000 edge_12_8_0_0 <= 0
 inactive_no_flow_12_9_0_0: flow_12_9_0_0 - 1000 edge_12_9_0_0 <= 0
 inactive_no_flow_12_10_0_0: flow_12_10_0_0 - 1000 edge_12_10_0_0 <= 0
 inactive_no_flow_12_11_0_0: flow_12_11_0_0 - 1000 edge_12_11_0_0 <= 0
 inactive_no_flow_12_13_0_0: flow_12_13_0_0 - 1000 edge_12_13_0_0 <= 0
 inactive_no_flow_12_14_0_0: flow_12_14_0_0 - 1000 edge_12_14_0_0 <= 0
 inactive_no_flow_12_15_0_0: flow_12_15_0_0 - 1000 edge_12_15_0_0 <= 0
 inactive_no_flow_12_16_0_0: flow_12_16_0_0 - 1000 edge_12_16_0_0 <= 0
 inactive_no_flow_12_17_0_0: flow_12_17_0_0 - 1000 edge_12_17_0_0 <= 0
 inactive_no_flow_12_18_0_0: flow_12_18_0_0 - 1000 edge_12_18_0_0 <= 0
 inactive_no_flow_13_1_0_0: flow_13_1_0_0 - 1000 edge_13_1_0_0 <= 0
 inactive_no_flow_13_3_0_0: flow_13_3_0_0 - 1000 edge_13_3_0_0 <= 0
 inactive_no_flow_13_5_0_0: flow_13_5_0_0 - 1000 edge_13_5_0_0 <= 0
 inactive_no_flow_13_6_0_0: flow_13_6_0_0 - 1000 edge_13_6_0_0 <= 0
 inactive_no_flow_13_7_0_0: flow_13_7_0_0 - 1000 edge_13_7_0_0 <= 0
 inactive_no_flow_13_8_0_0: flow_13_8_0_0 - 1000 edge_13_8_0_0 <= 0
 inactive_no_flow_13_9_0_0: flow_13_9_0_0 - 1000 edge_13_9_0_0 <= 0
 inactive_no_flow_13_11_0_0: flow_13_11_0_0 - 1000 edge_13_11_0_0 <= 0
 inactive_no_flow_13_12_0_0: flow_13_12_0_0 - 1000 edge_13_12_0_0 <= 0
 inactive_no_flow_13_14_0_0: flow_13_14_0_0 - 1000 edge_13_14_0_0 <= 0
 inactive_no_flow_13_15_0_0: flow_13_15_0_0 - 1000 edge_13_15_0_0 <= 0
 inactive_no_flow_13_16_0_0: flow_13_16_0_0 - 1000 edge_13_16_0_0 <= 0
 inactive_no_flow_13_17_0_0: flow_13_17_0_0 - 1000 edge_13_17_0_0 <= 0
 inactive_no_flow_13_18_0_0: flow_13_18_0_0 - 1000 edge_13_18_0_0 <= 0
 inactive_no_flow_14_10_0_0: flow_14_10_0_0 - 1000 edge_14_10_0_0 <= 0
 inactive_no_flow_14_12_0_0: flow_14_12_0_0 - 1000 edge_14_12_0_0 <= 0
 inactive_no_flow_14_13_0_0: flow_14_13_0_0 - 1000 edge_14_13_0_0 <= 0
 inactive_no_flow_14_15_0_0: flow_14_15_0_0 - 1000 edge_14_15_0_0 <= 0
 inactive_no_flow_14_16_0_0: flow_14_16_0_0 - 1000 edge_14_16_0_0 <= 0
 inactive_no_flow_14_17_0_0: flow_14_17_0_0 - 1000 edge_14_17_0_0 <= 0
 inactive_no_flow_14_18_0_0: flow_14_18_0_0 - 1000 edge_14_18_0_0 <= 0
 inactive_no_flow_15_1_0_0: flow_15_1_0_0 - 1000 edge_15_1_0_0 <= 0
 inactive_no_flow_15_3_0_0: flow_15_3_0_0 - 1000 edge_15_3_0_0 <= 0
 inactive_no_flow_15_5_0_0: flow_15_5_0_0 - 1000 edge_15_5_0_0 <= 0
 inactive_no_flow_15_6_0_0: flow_15_6_0_0 - 1000 edge_15_6_0_0 <= 0
 inactive_no_flow_15_7_0_0: flow_15_7_0_0 - 1000 edge_15_7_0_0 <= 0
 inactive_no_flow_15_8_0_0: flow_15_8_0_0 - 1000 edge_15_8_0_0 <= 0
 inactive_no_flow_15_10_0_0: flow_15_10_0_0 - 1000 edge_15_10_0_0 <= 0
 inactive_no_flow_15_11_0_0: flow_15_11_0_0 - 1000 edge_15_11_0_0 <= 0
 inactive_no_flow_15_12_0_0: flow_15_12_0_0 - 1000 edge_15_12_0_0 <= 0
 inactive_no_flow_15_13_0_0: flow_15_13_0_0 - 1000 edge_15_13_0_0 <= 0
 inactive_no_flow_15_14_0_0: flow_15_14_0_0 - 1000 edge_15_14_0_0 <= 0
 inactive_no_flow_15_16_0_0: flow_15_16_0_0 - 1000 edge_15_16_0_0 <= 0
 inactive_no_flow_15_17_0_0: flow_15_17_0_0 - 1000 edge_15_17_0_0 <= 0
 inactive_no_flow_15_18_0_0: flow_15_18_0_0 - 1000 edge_15_18_0_0 <= 0
 inactive_no_flow_16_12_0_0: flow_16_12_0_0 - 1000 edge_16_12_0_0 <= 0
 inactive_no_flow_16_14_0_0: flow_16_14_0_0 - 1000 edge_16_14_0_0 <= 0
 inactive_no_flow_16_15_0_0: flow_16_15_0_0 - 1000 edge_16_15_0_0 <= 0
 inactive_no_flow_16_17_0_0: flow_16_17_0_0 - 1000 edge_16_17_0_0 <= 0
 inactive_no_flow_17_1_0_0: flow_17_1_0_0 - 1000 edge_17_1_0_0 <= 0
 inactive_no_flow_17_3_0_0: flow_17_3_0_0 - 1000 edge_17_3_0_0 <= 0
 inactive_no_flow_17_5_0_0: flow_17_5_0_0 - 1000 edge_17_5_0_0 <= 0
 inactive_no_flow_17_7_0_0: flow_17_7_0_0 - 1000 edge_17_7_0_0 <= 0
 inactive_no_flow_17_11_0_0: flow_17_11_0_0 - 1000 edge_17_11_0_0 <= 0
 inactive_no_flow_17_12_0_0: flow_17_12_0_0 - 1000 edge_17_12_0_0 <= 0
 inactive_no_flow_17_14_0_0: flow_17_14_0_0 - 1000 edge_17_14_0_0 <= 0
 inactive_no_flow_17_15_0_0: flow_17_15_0_0 - 1000 edge_17_15_0_0 <= 0
 inactive_no_flow_17_16_0_0: flow_17_16_0_0 - 1000 edge_17_16_0_0 <= 0
 inactive_no_flow_17_18_0_0: flow_17_18_0_0 - 1000 edge_17_18_0_0 <= 0
 inactive_no_flow_18_14_0_0: flow_18_14_0_0 - 1000 edge_18_14_0_0 <= 0
 inactive_no_flow_18_17_0_0: flow_18_17_0_0 - 1000 edge_18_17_0_0 <= 0
Bounds
Binaries
 edge_0_1_0_0 edge_0_2_0_0 edge_0_3_0_0 edge_0_4_0_0 edge_0_5_0_0
 edge_0_6_0_0 edge_0_7_0_0 edge_0_8_0_0 edge_0_13_0_0 edge_0_15_0_0
 edge_1_2_0_0 edge_1_3_0_0 edge_1_4_0_0 edge_1_5_0_0 edge_1_6_0_0
 edge_1_7_0_0 edge_1_8_0_0 edge_1_9_0_0 edge_1_10_0_0 edge_1_11_0_0
 edge_1_12_0_0 edge_1_13_0_0 edge_1_14_0_0 edge_1_15_0_0 edge_1_16_0_0
 edge_1_18_0_0 edge_2_1_0_0 edge_2_3_0_0 edge_2_4_0_0 edge_2_5_0_0
 edge_2_6_0_0 edge_2_7_0_0 edge_2_8_0_0 edge_2_9_0_0 edge_2_12_0_0
 edge_2_13_0_0 edge_2_14_0_0 edge_2_15_0_0 edge_2_16_0_0 edge_2_17_0_0
 edge_3_1_0_0 edge_3_2_0_0 edge_3_3_0_0 edge_3_5_0_0 edge_3_6_0_0
 edge_3_7_0_0 edge_3_8_0_0 edge_3_9_0_0 edge_3_10_0_0 edge_3_11_0_0
 edge_3_12_0_0 edge_3_13_0_0 edge_3_14_0_0 edge_3_15_0_0 edge_3_16_0_0
 edge_3_17_0_0 edge_3_18_0_0 edge_4_1_0_0 edge_4_2_0_0 edge_4_5_0_0
 edge_4_6_0_0 edge_4_7_0_0 edge_4_18_0_0 edge_5_1_0_0 edge_5_2_0_0
 edge_5_3_0_0 edge_5_4_0_0 edge_5_6_0_0 edge_5_7_0_0 edge_5_8_0_0
 edge_5_9_0_0 edge_5_10_0_0 edge_5_11_0_0 edge_5_12_0_0 edge_5_13_0_0
 edge_5_14_0_0 edge_5_15_0_0 edge_5_16_0_0 edge_5_17_0_0 edge_5_18_0_0
 edge_6_1_0_0 edge_6_2_0_0 edge_6_3_0_0 edge_6_4_0_0 edge_6_5_0_0
 edge_6_6_0_0 edge_6_7_0_0 edge_6_8_0_0 edge_6_9_0_0 edge_6_11_0_0
 edge_6_12_0_0 edge_6_13_0_0 edge_6_14_0_0 edge_6_15_0_0 edge_6_16_0_0
 edge_6_17_0_0 edge_6_18_0_0 edge_7_1_0_0 edge_7_2_0_0 edge_7_3_0_0
 edge_7_5_0_0 edge_7_6_0_0 edge_7_7_0_0 edge_7_8_0_0 edge_7_9_0_0
 edge_7_10_0_0 edge_7_11_0_0 edge_7_12_0_0 edge_7_13_0_0 edge_7_14_0_0
 edge_7_15_0_0 edge_7_16_0_0 edge_7_17_0_0 edge_7_18_0_0 edge_8_1_0_0
 edge_8_2_0_0 edge_8_3_0_0 edge_8_4_0_0 edge_8_5_0_0 edge_8_6_0_0
 edge_8_7_0_0 edge_8_8_0_0 edge_8_9_0_0 edge_8_10_0_0 edge_8_11_0_0
 edge_8_12_0_0 edge_8_13_0_0 edge_8_14_0_0 edge_8_15_0_0 edge_8_16_0_0
 edge_8_17_0_0 edge_8_18_0_0 edge_10_9_0_0 edge_10_12_0_0 edge_10_14_0_0
 edge_10_15_0_0 edge_10_16_0_0 edge_10_17_0_0 edge_10_18_0_0 edge_11_1_0_0
 edge_11_3_0_0 edge_11_6_0_0 edge_11_7_0_0 edge_11_8_0_0 edge_11_12_0_0
 edge_11_13_0_0 edge_11_14_0_0 edge_12_5_0_0 edge_12_6_0_0 edge_12_7_0_0
 edge_12_8_0_0 edge_12_9_0_0 edge_12_10_0_0 edge_12_11_0_0 edge_12_13_0_0
 edge_12_14_0_0 edge_12_15_0_0 edge_12_16_0_0 edge_12_17_0_0 edge_12_18_0_0
 edge_13_1_0_0 edge_13_3_0_0 edge_13_5_0_0 edge_13_6_0_0 edge_13_7_0_0
 edge_13_8_0_0 edge_13_9_0_0 edge_13_11_0_0 edge_13_12_0_0 edge_13_14_0_0
 edge_13_15_0_0 edge_13_16_0_0 edge_13_17_0_0 edge_13_18_0_0 edge_14_10_0_0
 edge_14_12_0_0 edge_14_13_0_0 edge_14_15_0_0 edge_14_16_0_0 edge_14_17_0_0
 edge_14_18_0_0 edge_15_1_0_0 edge_15_3_0_0 edge_15_5_0_0 edge_15_6_0_0
 edge_15_7_0_0 edge_15_8_0_0 edge_15_10_0_0 edge_15_11_0_0 edge_15_12_0_0
 edge_15_13_0_0 edge_15_14_0_0 edge_15_16_0_0 edge_15_17_0_0 edge_15_18_0_0
 edge_16_12_0_0 edge_16_14_0_0 edge_16_15_0_0 edge_16_17_0_0 edge_17_1_0_0
 edge_17_3_0_0 edge_17_5_0_0 edge_17_7_0_0 edge_17_11_0_0 edge_17_12_0_0
 edge_17_14_0_0 edge_17_15_0_0 edge_17_16_0_0 edge_17_18_0_0 edge_18_14_0_0
 edge_18_17_0_0
End
